(declare-fun var0 () String)
(assert (RegexIn var0 (RegexConcat (RegexPlus (RegexUnion (Str2Reg "!") (Str2Reg "\""))) (RegexConcat (RegexUnion (RegexPlus (Str2Reg "Y")) (RegexStar (Str2Reg "ZZZ"))) (RegexConcat (RegexPlus (RegexUnion (Str2Reg "WWW") (Str2Reg "X"))) (RegexConcat (RegexPlus (RegexUnion (Str2Reg "U") (Str2Reg "V"))) (RegexConcat (RegexUnion (RegexUnion (Str2Reg "RRR") (Str2Reg "SS")) (RegexPlus (Str2Reg "TTT"))) (RegexConcat (RegexPlus (RegexUnion (Str2Reg "P") (Str2Reg "QQ"))) (RegexConcat (RegexPlus (RegexUnion (Str2Reg "NNN") (Str2Reg "OO"))) (RegexConcat (RegexPlus (RegexUnion (Str2Reg "LLL") (Str2Reg "M"))) (RegexConcat (RegexUnion (RegexUnion (Str2Reg "III") (Str2Reg "J")) (RegexPlus (Str2Reg "K"))) (RegexConcat (RegexPlus (RegexPlus (Str2Reg "H"))) (RegexConcat (RegexUnion (RegexStar (Str2Reg "E")) (RegexUnion (Str2Reg "F") (Str2Reg "G"))) (RegexConcat (RegexUnion (RegexUnion (Str2Reg "B") (Str2Reg "CCC")) (RegexStar (Str2Reg "DD"))) (RegexConcat (RegexPlus (RegexPlus (Str2Reg "A"))) (RegexConcat (RegexUnion (RegexUnion (Str2Reg "xxx") (Str2Reg "yy")) (RegexPlus (Str2Reg "zz"))) (RegexConcat (RegexStar (RegexUnion (Str2Reg "v") (Str2Reg "www"))) (RegexConcat (RegexUnion (RegexUnion (Str2Reg "sss") (Str2Reg "ttt")) (RegexPlus (Str2Reg "uu"))) (RegexConcat (RegexUnion (RegexPlus (Str2Reg "qq")) (RegexPlus (Str2Reg "rr"))) (RegexConcat (RegexPlus (RegexPlus (Str2Reg "ppp"))) (RegexConcat (RegexUnion (RegexPlus (Str2Reg "n")) (RegexPlus (Str2Reg "o"))) (RegexConcat (RegexPlus (RegexUnion (Str2Reg "l") (Str2Reg "m"))) (RegexConcat (RegexUnion (RegexUnion (Str2Reg "hh") (Str2Reg "i")) (RegexUnion (Str2Reg "j") (Str2Reg "kkk"))) (RegexConcat (RegexPlus (RegexStar (Str2Reg "g"))) (RegexConcat (RegexUnion (RegexStar (Str2Reg "ddd")) (RegexUnion (Str2Reg "ee") (Str2Reg "fff"))) (RegexConcat (RegexUnion (RegexUnion (Str2Reg "a") (Str2Reg "bb")) (RegexStar (Str2Reg "cc"))) (RegexConcat (RegexUnion (RegexStar (Str2Reg "888")) (RegexStar (Str2Reg "999"))) (RegexConcat (RegexUnion (RegexPlus (Str2Reg "666")) (RegexPlus (Str2Reg "7"))) (RegexConcat (RegexPlus (RegexStar (Str2Reg "555"))) (RegexConcat (RegexStar (RegexUnion (Str2Reg "33") (Str2Reg "44"))) (RegexConcat (RegexStar (RegexPlus (Str2Reg "2"))) (RegexConcat (RegexPlus (RegexUnion (Str2Reg "00") (Str2Reg "11"))) (RegexConcat (RegexUnion (RegexPlus (Str2Reg "||")) (RegexUnion (Str2Reg "}}}") (Str2Reg "~~"))) (RegexConcat (RegexPlus (RegexPlus (Str2Reg "{"))) (RegexConcat (RegexStar (RegexUnion (Str2Reg "_") (Str2Reg "`"))) (RegexConcat (RegexUnion (RegexPlus (Str2Reg "]]]")) (RegexStar (Str2Reg "^^^"))) (RegexConcat (RegexPlus (RegexUnion (Str2Reg "[") (Str2Reg "\\\\\\"))) (RegexConcat (RegexPlus (RegexUnion (Str2Reg "?") (Str2Reg "@@@"))) (RegexConcat (RegexPlus (RegexStar (Str2Reg ">"))) (RegexConcat (RegexUnion (RegexPlus (Str2Reg ";;;")) (RegexUnion (Str2Reg "<<<") (Str2Reg "="))) (RegexConcat (RegexUnion (RegexStar (Str2Reg ".")) (RegexUnion (Str2Reg "/") (Str2Reg "::"))) (RegexConcat (RegexPlus (RegexStar (Str2Reg "--"))) (RegexConcat (RegexStar (RegexStar (Str2Reg ",,,"))) (RegexConcat (RegexUnion (RegexUnion (Str2Reg "))") (Str2Reg "*")) (RegexPlus (Str2Reg "+++"))) (RegexConcat (RegexPlus (RegexStar (Str2Reg "(("))) (RegexConcat (RegexUnion (RegexPlus (Str2Reg "%%")) (RegexUnion (Str2Reg "&") (Str2Reg "'''"))) (RegexConcat (RegexStar (RegexPlus (Str2Reg "$$"))) (RegexConcat (RegexUnion (RegexStar (Str2Reg "\"\"\"")) (RegexPlus (Str2Reg "##"))) (RegexConcat (RegexPlus (RegexUnion (Str2Reg "ZZ") (Str2Reg "!"))) (RegexConcat (RegexStar (RegexPlus (Str2Reg "YY"))) (RegexConcat (RegexPlus (RegexStar (Str2Reg "XX"))) (RegexConcat (RegexUnion (RegexUnion (Str2Reg "U") (Str2Reg "VVV")) (RegexStar (Str2Reg "W"))) (RegexConcat (RegexStar (RegexPlus (Str2Reg "TT"))) (RegexConcat (RegexUnion (RegexStar (Str2Reg "R")) (RegexPlus (Str2Reg "S"))) (RegexConcat (RegexStar (RegexUnion (Str2Reg "PPP") (Str2Reg "QQ"))) (RegexConcat (RegexPlus (RegexUnion (Str2Reg "NN") (Str2Reg "OO"))) (RegexConcat (RegexStar (RegexPlus (Str2Reg "MMM"))) (RegexConcat (RegexStar (RegexStar (Str2Reg "LLL"))) (RegexConcat (RegexStar (RegexUnion (Str2Reg "J") (Str2Reg "KK"))) (RegexConcat (RegexUnion (RegexPlus (Str2Reg "HH")) (RegexPlus (Str2Reg "III"))) (RegexConcat (RegexPlus (RegexUnion (Str2Reg "F") (Str2Reg "GGG"))) (RegexConcat (RegexStar (RegexStar (Str2Reg "E"))) (RegexConcat (RegexStar (RegexPlus (Str2Reg "D"))) (RegexConcat (RegexPlus (RegexPlus (Str2Reg "C"))) (RegexConcat (RegexUnion (RegexUnion (Str2Reg "zz") (Str2Reg "A")) (RegexPlus (Str2Reg "B"))) (RegexConcat (RegexPlus (RegexPlus (Str2Reg "y"))) (RegexConcat (RegexPlus (RegexUnion (Str2Reg "www") (Str2Reg "x"))) (RegexConcat (RegexPlus (RegexUnion (Str2Reg "uuu") (Str2Reg "v"))) (RegexConcat (RegexStar (RegexStar (Str2Reg "t"))) (RegexConcat (RegexUnion (RegexPlus (Str2Reg "qqq")) (RegexUnion (Str2Reg "rr") (Str2Reg "sss"))) (RegexConcat (RegexPlus (RegexPlus (Str2Reg "pp"))) (RegexConcat (RegexPlus (RegexStar (Str2Reg "ooo"))) (RegexConcat (RegexPlus (RegexPlus (Str2Reg "nnn"))) (RegexConcat (RegexStar (RegexStar (Str2Reg "mmm"))) (RegexConcat (RegexUnion (RegexUnion (Str2Reg "ii") (Str2Reg "j")) (RegexUnion (Str2Reg "k") (Str2Reg "lll"))) (RegexConcat (RegexStar (RegexStar (Str2Reg "h"))) (RegexConcat (RegexPlus (RegexStar (Str2Reg "gg"))) (RegexConcat (RegexUnion (RegexUnion (Str2Reg "cc") (Str2Reg "dd")) (RegexUnion (Str2Reg "eee") (Str2Reg "ff"))) (RegexConcat (RegexStar (RegexPlus (Str2Reg "bb"))) (RegexConcat (RegexUnion (RegexUnion (Str2Reg "8") (Str2Reg "99")) (RegexStar (Str2Reg "a"))) (RegexConcat (RegexPlus (RegexPlus (Str2Reg "777"))) (RegexConcat (RegexStar (RegexUnion (Str2Reg "5") (Str2Reg "66"))) (RegexConcat (RegexStar (RegexPlus (Str2Reg "44"))) (RegexConcat (RegexPlus (RegexPlus (Str2Reg "33"))) (RegexConcat (RegexPlus (RegexPlus (Str2Reg "2"))) (RegexConcat (RegexPlus (RegexStar (Str2Reg "111"))) (RegexStar (RegexStar (Str2Reg "000")))))))))))))))))))))))))))))))))))))))))))))))))))))))))))))))))))))))))))))))))))))))))
(check-sat)